start_domain = 8;
target_domain = 7;
vnflist_size = 6;
vnflist = [10,1,3,1,5,10];
vnf_arcs = [|1,2|1,3|3,4|3,5|5,6|];
proximity_to_source = [0,0,0,0,0,0];
proximity_to_destination = [0,0,1,0,0,0];
n_domain_constraints = 1;
domain_constraints = [|7,1,1,1|];
